c FILE: i160-212

c SOURCE: From steinlib

c DESCRIPTION: Steinlib instance with 160 nodes and 812 edges.

p edge 160 812
e 1 3
e 1 46
e 1 69
e 1 71
e 1 90
e 1 120
e 1 123
e 1 136
e 1 145
e 1 148
e 1 159
e 2 46
e 2 52
e 2 65
e 2 74
e 2 97
e 2 111
e 2 129
e 2 148
e 3 14
e 3 21
e 3 29
e 3 48
e 3 57
e 3 61
e 3 66
e 3 97
e 3 116
e 3 141
e 3 143
e 4 32
e 4 38
e 4 54
e 4 55
e 4 72
e 4 80
e 4 105
e 4 117
e 4 119
e 4 124
e 4 133
e 4 141
e 4 149
e 4 154
e 5 16
e 5 86
e 5 131
e 5 140
e 6 9
e 6 12
e 6 26
e 6 50
e 6 75
e 6 76
e 6 85
e 6 99
e 6 106
e 6 112
e 6 117
e 6 120
e 6 140
e 7 10
e 7 14
e 7 24
e 7 30
e 7 46
e 7 92
e 7 99
e 7 124
e 7 136
e 7 138
e 7 160
e 8 11
e 8 18
e 8 30
e 8 44
e 8 74
e 8 79
e 8 93
e 8 95
e 8 98
e 8 116
e 8 122
e 8 124
e 8 125
e 8 130
e 8 140
e 8 149
e 8 150
e 9 58
e 9 64
e 9 70
e 9 73
e 9 82
e 9 112
e 9 114
e 9 132
e 9 150
e 10 17
e 10 35
e 10 40
e 10 45
e 10 78
e 10 81
e 10 103
e 10 110
e 10 118
e 10 119
e 10 149
e 11 36
e 11 61
e 11 99
e 11 114
e 11 143
e 11 156
e 12 20
e 12 51
e 12 75
e 12 84
e 12 110
e 12 135
e 12 139
e 13 32
e 13 40
e 13 57
e 13 73
e 13 95
e 13 98
e 13 122
e 13 127
e 13 149
e 14 23
e 14 27
e 14 28
e 14 31
e 14 49
e 14 50
e 14 66
e 14 76
e 14 83
e 14 84
e 14 85
e 14 91
e 14 99
e 14 108
e 14 114
e 14 123
e 14 124
e 14 140
e 14 146
e 14 153
e 15 107
e 15 120
e 15 136
e 15 137
e 15 139
e 15 149
e 15 157
e 16 29
e 16 30
e 16 38
e 16 46
e 16 61
e 16 78
e 16 104
e 16 111
e 16 112
e 16 118
e 16 123
e 16 135
e 17 22
e 17 59
e 17 86
e 17 97
e 17 122
e 17 124
e 17 125
e 17 128
e 17 135
e 17 138
e 17 154
e 18 23
e 18 35
e 18 53
e 18 54
e 18 68
e 18 79
e 18 85
e 18 87
e 18 92
e 18 100
e 18 125
e 18 153
e 18 156
e 19 42
e 19 87
e 19 113
e 19 141
e 19 144
e 19 151
e 20 45
e 20 53
e 20 65
e 20 80
e 20 94
e 20 99
e 20 114
e 20 139
e 20 143
e 21 27
e 21 74
e 21 100
e 21 113
e 21 120
e 21 136
e 21 160
e 22 59
e 22 74
e 22 82
e 22 102
e 22 108
e 22 109
e 22 146
e 22 147
e 22 159
e 23 32
e 23 44
e 23 56
e 23 68
e 23 75
e 23 90
e 23 96
e 23 102
e 23 147
e 24 25
e 24 31
e 24 35
e 24 46
e 24 51
e 24 106
e 24 128
e 24 141
e 25 31
e 25 44
e 25 46
e 25 72
e 25 102
e 25 108
e 25 111
e 25 113
e 25 139
e 25 149
e 26 40
e 26 55
e 26 79
e 26 81
e 26 96
e 26 109
e 26 124
e 26 129
e 26 132
e 27 48
e 27 57
e 27 71
e 27 102
e 27 114
e 27 115
e 27 129
e 28 59
e 28 75
e 28 87
e 28 98
e 28 100
e 29 32
e 29 45
e 29 56
e 29 67
e 29 70
e 29 80
e 29 86
e 29 120
e 29 129
e 30 39
e 30 45
e 30 74
e 30 91
e 30 92
e 30 106
e 30 124
e 30 136
e 30 144
e 30 159
e 31 33
e 31 63
e 31 97
e 32 58
e 32 61
e 32 70
e 32 73
e 32 76
e 32 94
e 33 38
e 33 71
e 33 85
e 33 150
e 33 155
e 34 52
e 34 59
e 34 83
e 34 88
e 34 92
e 34 114
e 34 118
e 35 50
e 35 85
e 36 60
e 36 88
e 36 100
e 36 138
e 36 144
e 36 147
e 37 122
e 37 152
e 38 57
e 38 81
e 38 102
e 38 110
e 38 136
e 39 47
e 39 54
e 39 109
e 39 137
e 39 142
e 39 146
e 40 79
e 40 80
e 40 94
e 40 106
e 40 114
e 40 148
e 41 59
e 41 69
e 41 91
e 41 95
e 41 108
e 41 118
e 41 136
e 41 141
e 41 150
e 42 68
e 42 116
e 42 130
e 42 142
e 42 149
e 42 158
e 43 59
e 43 62
e 43 91
e 43 95
e 43 96
e 43 98
e 43 126
e 44 46
e 44 113
e 44 154
e 44 157
e 44 158
e 44 160
e 45 47
e 45 75
e 45 99
e 45 107
e 45 117
e 45 124
e 45 130
e 45 134
e 45 143
e 46 95
e 46 103
e 46 118
e 46 124
e 46 128
e 46 137
e 46 148
e 47 58
e 47 64
e 47 95
e 47 142
e 47 152
e 47 156
e 48 114
e 48 129
e 48 147
e 49 76
e 49 78
e 49 82
e 49 89
e 49 100
e 49 103
e 49 120
e 49 131
e 49 144
e 49 155
e 50 60
e 50 64
e 50 104
e 50 114
e 50 152
e 50 160
e 51 64
e 51 88
e 51 111
e 51 156
e 52 67
e 52 71
e 52 72
e 52 90
e 52 101
e 52 110
e 52 123
e 52 124
e 52 137
e 52 148
e 52 154
e 53 77
e 53 93
e 53 99
e 53 105
e 53 113
e 53 119
e 53 132
e 53 141
e 54 55
e 54 56
e 54 81
e 54 93
e 54 103
e 54 117
e 54 125
e 55 68
e 55 87
e 55 159
e 56 77
e 56 79
e 56 80
e 56 81
e 56 94
e 56 101
e 56 103
e 56 110
e 56 137
e 56 151
e 57 62
e 57 85
e 57 89
e 57 95
e 57 96
e 57 105
e 57 145
e 58 71
e 58 128
e 58 148
e 58 151
e 59 76
e 59 101
e 59 114
e 59 120
e 59 122
e 60 85
e 60 91
e 60 109
e 60 110
e 60 121
e 60 122
e 60 149
e 61 81
e 61 101
e 61 128
e 61 131
e 61 147
e 62 69
e 62 83
e 62 99
e 62 102
e 62 127
e 62 129
e 62 132
e 62 133
e 63 116
e 63 136
e 63 138
e 63 143
e 63 150
e 64 74
e 64 77
e 64 88
e 64 109
e 64 127
e 64 128
e 64 130
e 64 141
e 64 145
e 65 66
e 65 76
e 66 74
e 66 77
e 66 97
e 66 126
e 66 130
e 66 142
e 66 152
e 67 74
e 67 80
e 67 123
e 67 143
e 67 147
e 67 151
e 68 69
e 68 100
e 68 102
e 68 118
e 68 124
e 68 131
e 68 133
e 68 138
e 68 147
e 68 149
e 69 88
e 69 93
e 69 117
e 69 131
e 70 88
e 70 105
e 70 113
e 70 144
e 70 150
e 70 154
e 71 86
e 71 120
e 71 142
e 71 147
e 71 149
e 71 156
e 72 78
e 72 93
e 72 106
e 72 107
e 72 117
e 72 120
e 72 123
e 72 148
e 72 149
e 72 154
e 73 80
e 73 87
e 73 134
e 73 149
e 74 78
e 74 116
e 74 117
e 74 134
e 75 82
e 75 91
e 75 94
e 75 98
e 75 101
e 76 107
e 76 116
e 76 122
e 76 129
e 76 152
e 77 112
e 77 134
e 77 143
e 77 150
e 78 89
e 78 102
e 78 141
e 78 143
e 78 147
e 79 92
e 79 93
e 79 104
e 79 125
e 79 135
e 79 155
e 79 158
e 80 87
e 80 88
e 80 108
e 80 110
e 80 116
e 80 122
e 80 132
e 80 143
e 80 144
e 80 149
e 80 156
e 80 158
e 81 88
e 81 91
e 81 99
e 81 113
e 81 129
e 81 133
e 81 138
e 82 102
e 82 104
e 82 108
e 82 109
e 82 127
e 82 140
e 83 93
e 83 105
e 83 132
e 83 150
e 83 159
e 83 160
e 84 91
e 84 131
e 84 142
e 84 153
e 85 86
e 85 87
e 85 92
e 85 96
e 85 112
e 85 121
e 85 126
e 85 128
e 85 139
e 86 97
e 86 127
e 86 133
e 86 160
e 87 98
e 87 106
e 87 110
e 87 121
e 87 129
e 87 132
e 87 145
e 87 155
e 87 156
e 88 97
e 88 123
e 89 93
e 89 96
e 89 108
e 89 111
e 89 159
e 90 122
e 90 149
e 90 153
e 91 94
e 91 98
e 91 102
e 91 124
e 91 150
e 91 160
e 92 98
e 92 128
e 92 142
e 93 97
e 93 102
e 93 112
e 93 124
e 93 126
e 93 148
e 94 111
e 94 117
e 94 120
e 94 132
e 94 145
e 95 102
e 95 115
e 95 122
e 95 150
e 96 110
e 96 146
e 96 156
e 96 159
e 97 99
e 97 124
e 97 146
e 97 158
e 98 144
e 98 158
e 99 107
e 99 126
e 99 127
e 99 130
e 99 147
e 100 122
e 100 140
e 100 141
e 101 117
e 101 133
e 101 146
e 101 160
e 102 123
e 102 137
e 102 144
e 102 155
e 103 121
e 103 123
e 103 138
e 103 146
e 104 110
e 104 119
e 104 131
e 104 144
e 105 113
e 105 125
e 105 130
e 105 136
e 105 155
e 106 107
e 106 151
e 107 128
e 107 159
e 108 112
e 108 118
e 108 125
e 108 149
e 108 154
e 109 123
e 109 130
e 109 153
e 109 158
e 110 115
e 110 118
e 110 121
e 110 127
e 110 148
e 110 154
e 111 113
e 111 115
e 111 154
e 112 117
e 112 138
e 112 146
e 112 152
e 112 159
e 113 119
e 113 157
e 114 140
e 114 151
e 114 156
e 114 159
e 115 132
e 115 139
e 116 121
e 116 134
e 116 142
e 116 145
e 117 131
e 117 132
e 117 139
e 117 150
e 117 157
e 118 135
e 118 137
e 118 141
e 118 144
e 118 158
e 119 121
e 119 138
e 120 130
e 120 132
e 122 128
e 122 141
e 123 152
e 125 128
e 125 156
e 126 146
e 126 148
e 127 129
e 127 139
e 128 129
e 128 156
e 129 134
e 129 137
e 129 146
e 129 158
e 130 154
e 131 137
e 132 147
e 132 155
e 133 134
e 133 136
e 133 159
e 134 142
e 135 152
e 135 156
e 136 140
e 136 148
e 136 158
e 137 146
e 137 155
e 138 155
e 140 141
e 142 146
e 142 150
e 143 146
e 145 159
e 148 151
e 148 159
e 149 152
e 150 154
e 151 156
e 152 157
